Custom/6539906_15.param
$ LBS instance with n = 15, seed = 6539906
letting cards be [48,16,29,33,46,38,13,24,2,7,44,37,50,22,14]
